============================[ Problem Statistics ]=============================|                                                                             ||  Number of variables:          4242                                         ||  Number of clauses:            9971                                         ||  Parse time:                   0.36 s                                       ||                                                                             |============================[ Search Statistics ]==============================| Conflicts |          ORIGINAL         |          LEARNT          | Progress ||           |    Vars  Clauses Literals |    Limit  Clauses Lit/Cl |          |===============================================================================|       100 |    1591     6176   573417 |     2264      100     53 | 62.501 % |===============================================================================restarts              : 3conflicts             : 209            (377 /sec)decisions             : 474            (0.00 % random) (856 /sec)propagations          : 11669          (21063 /sec)conflict literals     : 14946          (95.10 % deleted)CPU time              : 0.554 sSATISFIABLE